<number of tasks>
58

<cycle time>
56

<task times>
1 10
2 53
3 41
4 36
5 35
6 17
7 34
8 23
9 14
10 52
11 33
12 34
13 12
14 52
15 12
16 33
17 44
18 7
19 15
20 13
21 29
22 37
23 43
24 23
25 24
26 9
27 16
28 12
29 26
30 22
31 51
32 47
33 34
34 23
35 12
36 52
37 12
38 33
39 44
40 7
41 15
42 13
43 29
44 37
45 43
46 23
47 24
48 9
49 16
50 12
51 26
52 12
53 52
54 12
55 33
56 44
57 7
58 15

<precedence relations>
1,9
2,25
3,21
3,22
4,10
5,36
6,23
6,24
7,43
8,44
9,11
11,13
11,14
11,15
12,17
13,17
14,17
15,17
16,18
17,20
18,19
19,23
20,21
20,25
21,26
21,44
22,27
23,31
24,31
25,38
26,29
27,30
28,32
28,33
29,31
30,34
31,36
32,45
33,35
34,36
35,43
36,37
36,38
37,39
37,40
37,41
38,52
39,43
40,43
41,42
42,43
43,45
44,45
45,46
45,48
45,49
46,47
46,50
47,51
48,55
49,58
50,58
51,52
52,53
53,54
54,55
54,56
55,57
56,57
57,58

<setup times forward>
1,2:3
1,3:7
1,4:6
1,5:1
1,6:6
1,7:13
1,8:5
1,9:1
1,10:2
1,16:5
1,18:1
1,19:7
1,22:10
1,23:4
1,24:3
1,27:3
1,30:13
1,32:12
1,33:2
1,34:5
1,35:10
2,1:3
2,3:4
2,4:3
2,5:2
2,6:3
2,7:10
2,8:8
2,9:2
2,10:5
2,12:3
2,13:9
2,14:3
2,15:7
2,16:8
2,17:9
2,18:2
2,19:4
2,20:1
2,21:2
2,22:7
2,23:1
2,25:2
2,26:9
2,27:6
2,28:3
2,29:8
2,30:10
2,31:2
2,32:9
2,33:5
2,34:8
2,35:7
2,36:2
2,37:6
2,39:6
2,40:5
2,41:5
2,42:7
2,43:7
2,44:6
2,45:5
2,46:3
2,47:3
2,48:3
2,49:2
2,50:8
2,51:8
3,1:7
3,2:4
3,4:1
3,5:6
3,6:1
3,7:6
3,8:12
3,9:6
3,10:9
3,11:4
3,12:7
3,13:5
3,14:1
3,15:3
3,16:12
3,17:5
3,18:6
3,20:3
3,21:6
3,22:3
3,23:3
3,24:4
3,25:6
3,28:7
3,32:5
3,33:9
3,35:3
4,1:6
4,2:3
4,3:1
4,5:5
4,7:7
4,8:11
4,9:5
4,10:8
4,11:3
4,12:6
4,13:6
4,15:4
4,16:11
4,17:6
4,18:5
4,19:1
4,20:2
4,21:5
4,22:4
4,23:2
4,24:3
4,25:5
4,26:6
4,27:9
4,28:6
4,29:11
4,30:7
4,31:1
4,32:6
4,33:8
4,34:11
4,35:4
4,36:5
4,37:9
4,38:1
4,39:9
4,40:8
4,41:8
4,42:4
4,43:4
4,44:9
4,45:8
4,49:1
4,50:5
4,51:5
4,52:5
4,53:8
4,54:5
4,55:6
4,56:5
4,57:6
4,58:6
5,1:1
5,2:2
5,3:6
5,4:5
5,6:5
5,7:12
5,8:6
5,10:3
5,11:2
5,12:1
5,13:11
5,14:5
5,15:9
5,16:6
5,17:11
5,19:6
5,20:3
5,22:9
5,23:3
5,24:2
5,26:11
5,27:4
5,28:1
5,29:6
5,30:12
5,31:4
5,32:11
5,33:3
5,34:6
5,35:9
5,44:4
6,1:6
6,2:3
6,3:1
6,5:5
6,7:7
6,8:11
6,9:5
6,10:8
6,11:3
6,12:6
6,13:6
6,15:4
6,16:11
6,17:6
6,18:5
6,19:1
6,20:2
6,21:5
6,22:4
6,23:2
6,24:3
6,25:5
6,26:6
6,27:9
6,28:6
6,29:11
6,30:7
6,32:6
6,33:8
6,34:11
6,35:4
6,44:9
7,1:13
7,2:10
7,3:6
7,4:7
7,5:12
7,6:7
7,8:18
7,9:12
7,10:15
7,11:10
7,12:13
7,13:1
7,14:7
7,15:3
7,16:18
7,17:1
7,18:12
7,19:6
7,20:9
7,21:12
7,22:3
7,23:9
7,24:10
7,25:12
7,26:1
7,27:16
7,28:13
7,29:18
7,31:8
7,32:1
7,33:15
7,34:18
7,35:3
7,36:12
7,37:16
7,38:8
7,39:16
7,40:15
7,41:15
7,42:3
7,43:3
7,44:16
8,1:5
8,2:8
8,3:12
8,4:11
8,5:6
8,6:11
8,7:18
8,9:6
8,10:3
8,11:8
8,12:5
8,13:17
8,14:11
8,15:15
8,17:17
8,18:6
8,19:12
8,20:9
8,21:6
8,22:15
8,23:9
8,24:8
8,25:6
8,26:17
8,27:2
8,28:5
8,30:18
8,31:10
8,32:17
8,33:3
8,35:15
8,36:6
8,37:2
8,38:10
8,39:2
8,40:3
8,41:3
8,42:15
8,43:15
8,44:2
9,2:2
9,3:6
9,4:5
9,6:5
9,7:12
9,8:6
9,10:3
9,11:2
9,12:1
9,16:6
9,19:6
9,22:9
9,23:3
9,24:2
9,27:4
9,28:1
9,30:12
9,32:11
9,33:3
9,34:6
9,35:9
10,1:2
10,2:5
10,3:9
10,5:3
10,6:8
10,7:15
10,8:3
10,9:3
10,11:5
10,12:2
10,13:14
10,14:8
10,15:12
10,16:3
10,17:14
10,18:3
10,19:9
10,20:6
10,21:3
10,22:12
10,23:6
10,24:5
10,25:3
10,26:14
10,27:1
10,28:2
10,29:3
10,30:15
10,31:7
10,32:14
10,34:3
10,35:12
10,36:3
10,37:1
10,38:7
10,39:1
10,42:12
10,43:12
10,44:1
10,46:8
10,47:8
10,48:8
10,49:7
10,50:13
10,51:13
10,52:13
10,53:16
10,54:3
10,55:14
10,56:3
10,57:14
10,58:14
11,3:4
11,4:3
11,5:2
11,6:3
11,7:10
11,8:8
11,10:5
11,12:3
11,13:9
11,14:3
11,15:7
11,16:8
11,18:2
11,19:4
11,22:7
11,23:1
11,27:6
11,28:3
11,30:10
11,32:9
11,33:5
11,34:8
11,35:7
12,2:3
12,3:7
12,4:6
12,5:1
12,6:6
12,7:13
12,8:5
12,9:1
12,10:2
12,11:3
12,13:12
12,14:6
12,15:10
12,16:5
12,17:12
12,18:1
12,19:7
12,22:10
12,23:4
12,24:3
12,27:3
12,30:13
12,32:12
12,33:2
12,34:5
12,35:10
13,2:9
13,3:5
13,4:6
13,5:11
13,6:6
13,7:1
13,8:17
13,10:14
13,12:12
13,14:6
13,15:2
13,16:17
13,18:11
13,19:5
13,22:2
13,23:8
13,24:9
13,27:15
13,28:12
13,30:1
13,33:14
13,34:17
13,35:2
14,2:3
14,3:1
14,5:5
14,7:7
14,8:11
14,10:8
14,12:6
14,13:6
14,15:4
14,16:11
14,17:6
14,18:5
14,19:1
14,22:4
14,23:2
14,24:3
14,27:9
14,28:6
14,30:7
14,32:6
14,33:8
14,34:11
14,35:4
15,2:7
15,3:3
15,4:4
15,5:9
15,6:4
15,7:3
15,8:15
15,10:12
15,12:10
15,13:2
15,14:4
15,16:15
15,17:2
15,18:9
15,19:3
15,23:6
15,24:7
15,27:13
15,28:10
15,30:3
15,32:2
15,33:12
15,34:15
16,1:5
16,2:8
16,3:12
16,4:11
16,5:6
16,6:11
16,7:18
16,9:6
16,10:3
16,11:8
16,12:5
16,13:17
16,14:11
16,15:15
16,17:17
16,18:6
16,20:9
16,21:6
16,22:15
16,24:8
16,25:6
16,26:17
16,27:2
16,28:5
16,30:18
16,32:17
16,33:3
16,35:15
16,44:2
17,2:9
17,3:5
17,4:6
17,5:11
17,6:6
17,7:1
17,8:17
17,10:14
17,16:17
17,18:11
17,19:5
17,20:8
17,22:2
17,23:8
17,24:9
17,27:15
17,28:12
17,30:1
17,33:14
17,34:17
17,35:2
18,1:1
18,2:2
18,3:6
18,4:5
18,6:5
18,7:12
18,8:6
18,10:3
18,11:2
18,12:1
18,13:11
18,14:5
18,15:9
18,17:11
18,19:6
18,20:3
18,22:9
18,24:2
18,26:11
18,27:4
18,28:1
18,29:6
18,30:12
18,32:11
18,33:3
18,34:6
18,35:9
18,44:4
19,1:7
19,2:4
19,4:1
19,5:6
19,6:1
19,7:6
19,8:12
19,9:6
19,10:9
19,11:4
19,12:7
19,13:5
19,14:1
19,15:3
19,17:5
19,20:3
19,21:6
19,22:3
19,23:3
19,24:4
19,25:6
19,26:5
19,27:10
19,28:7
19,29:12
19,30:6
19,32:5
19,33:9
19,34:12
19,35:3
19,44:10
20,2:1
20,3:3
20,4:2
20,5:3
20,6:2
20,7:9
20,8:9
20,10:6
20,16:9
20,18:3
20,19:3
20,21:3
20,22:6
20,24:1
20,25:3
20,27:7
20,28:4
20,30:9
20,32:8
20,33:6
20,34:9
20,35:6
21,2:2
21,4:5
21,6:5
21,7:12
21,8:6
21,10:3
21,16:6
21,19:6
21,22:9
21,23:3
21,24:2
21,26:11
21,27:4
21,28:1
21,30:12
21,32:11
21,33:3
21,34:6
21,35:9
21,44:4
22,1:10
22,2:7
22,4:4
22,5:9
22,6:4
22,7:3
22,8:15
22,9:9
22,10:12
22,11:7
22,12:10
22,13:2
22,14:4
22,16:15
22,17:2
22,18:9
22,19:3
22,20:6
22,21:9
22,23:6
22,24:7
22,25:9
22,26:2
22,27:13
22,28:10
22,29:15
22,31:5
22,32:2
22,33:12
22,44:13
23,1:4
23,2:1
23,3:3
23,4:2
23,5:3
23,7:9
23,8:9
23,9:3
23,10:6
23,11:1
23,12:4
23,13:8
23,14:2
23,15:6
23,17:8
23,21:3
23,22:6
23,24:1
23,25:3
23,26:8
23,27:7
23,28:4
23,29:9
23,30:9
23,31:1
23,32:8
23,33:6
23,34:9
23,35:6
23,44:7
24,1:3
24,3:4
24,4:3
24,5:2
24,7:10
24,8:8
24,9:2
24,10:5
24,12:3
24,13:9
24,14:3
24,15:7
24,16:8
24,17:9
24,18:2
24,19:4
24,20:1
24,21:2
24,22:7
24,23:1
24,25:2
24,26:9
24,27:6
24,28:3
24,29:8
24,30:10
24,31:2
24,32:9
24,33:5
24,34:8
24,35:7
24,44:6
25,3:6
25,4:5
25,6:5
25,7:12
25,8:6
25,10:3
25,16:6
25,19:6
25,22:9
25,23:3
25,24:2
25,26:11
25,27:4
25,28:1
25,29:6
25,30:12
25,31:4
25,32:11
25,33:3
25,34:6
25,35:9
25,37:4
25,38:4
25,39:4
25,40:3
25,41:3
25,42:9
25,43:9
25,44:4
25,45:3
25,46:5
25,47:5
25,48:5
25,49:4
25,50:10
25,51:10
26,2:9
26,4:6
26,5:11
26,6:6
26,7:1
26,8:17
26,10:14
26,16:17
26,18:11
26,19:5
26,22:2
26,23:8
26,24:9
26,25:11
26,27:15
26,28:12
26,29:17
26,30:1
26,33:14
26,34:17
26,35:2
26,44:15
27,1:3
27,2:6
27,4:9
27,5:4
27,6:9
27,7:16
27,8:2
27,9:4
27,10:1
27,11:6
27,12:3
27,13:15
27,14:9
27,15:13
27,16:2
27,17:15
27,18:4
27,19:10
27,20:7
27,21:4
27,23:7
27,24:6
27,25:4
27,26:15
27,28:3
27,29:2
27,30:16
27,31:8
27,32:15
27,33:1
27,35:13
28,2:3
28,3:7
28,4:6
28,5:1
28,6:6
28,7:13
28,8:5
28,9:1
28,10:2
28,11:3
28,13:12
28,14:6
28,15:10
28,16:5
28,17:12
28,18:1
28,19:7
28,20:4
28,21:1
28,22:10
28,23:4
28,24:3
28,25:1
28,26:12
28,27:3
28,29:5
28,30:13
28,31:5
28,32:12
28,33:2
28,34:5
28,36:1
28,37:3
28,38:5
28,39:3
28,40:2
28,41:2
28,42:10
28,44:3
29,2:8
29,4:11
29,5:6
29,6:11
29,7:18
29,10:3
29,18:6
29,19:12
29,22:15
29,23:9
29,24:8
29,25:6
29,27:2
29,28:5
29,30:18
29,31:10
29,32:17
29,33:3
29,35:15
29,44:2
30,1:13
30,2:10
30,4:7
30,5:12
30,6:7
30,8:18
30,9:12
30,10:15
30,11:10
30,12:13
30,13:1
30,14:7
30,15:3
30,16:18
30,17:1
30,18:12
30,19:6
30,20:9
30,21:12
30,23:9
30,24:10
30,25:12
30,26:1
30,28:13
30,29:18
30,31:8
30,32:1
30,33:15
30,34:18
30,35:3
30,44:16
31,2:2
31,4:1
31,5:4
31,7:8
31,8:10
31,10:7
31,22:5
31,25:4
31,27:8
31,28:5
31,30:8
31,32:7
31,33:7
31,34:10
31,35:5
31,36:4
31,44:8
32,1:12
32,2:9
32,3:5
32,4:6
32,5:11
32,6:6
32,7:1
32,8:17
32,9:11
32,10:14
32,11:9
32,12:12
32,14:6
32,15:2
32,16:17
32,18:11
32,19:5
32,20:8
32,21:11
32,22:2
32,23:8
32,24:9
32,25:11
32,27:15
32,29:17
32,30:1
32,31:7
32,33:14
32,34:17
32,35:2
32,36:11
32,37:15
32,38:7
32,39:15
32,40:14
32,41:14
32,42:2
32,43:2
32,44:15
32,45:14
33,1:2
33,2:5
33,3:9
33,4:8
33,5:3
33,6:8
33,7:15
33,8:3
33,9:3
33,11:5
33,12:2
33,13:14
33,14:8
33,15:12
33,16:3
33,17:14
33,18:3
33,19:9
33,20:6
33,21:3
33,22:12
33,23:6
33,24:5
33,25:3
33,26:14
33,27:1
33,29:3
33,30:15
33,31:7
33,32:14
33,34:3
33,35:12
33,36:3
33,37:1
33,38:7
33,39:1
33,42:12
33,44:1
34,1:5
34,2:8
34,4:11
34,5:6
34,6:11
34,7:18
34,9:6
34,10:3
34,11:8
34,12:5
34,13:17
34,14:11
34,15:15
34,17:17
34,18:6
34,19:12
34,20:9
34,21:6
34,23:9
34,24:8
34,25:6
34,26:17
34,28:5
34,31:10
34,32:17
34,33:3
34,35:15
34,36:6
34,44:2
35,1:10
35,2:7
35,3:3
35,4:4
35,5:9
35,6:4
35,7:3
35,8:15
35,9:9
35,10:12
35,11:7
35,12:10
35,13:2
35,14:4
35,16:15
35,17:2
35,18:9
35,19:3
35,20:6
35,21:9
35,23:6
35,24:7
35,25:9
35,26:2
35,27:13
35,29:15
35,30:3
35,31:5
35,32:2
35,34:15
35,36:9
35,37:13
35,38:5
35,39:13
35,40:12
35,41:12
35,44:13
36,2:2
36,4:5
36,7:12
36,8:6
36,10:3
36,28:1
36,32:11
36,33:3
36,35:9
36,37:4
36,38:4
36,44:4
37,2:6
37,4:9
37,7:16
37,8:2
37,10:1
37,25:4
37,28:3
37,32:15
37,33:1
37,35:13
37,38:8
37,40:1
37,41:1
38,4:1
38,7:8
38,8:10
38,10:7
38,28:5
38,32:7
38,33:7
38,35:5
38,37:8
38,39:8
38,40:7
38,41:7
38,42:5
38,43:5
38,44:8
38,45:7
38,46:1
38,47:1
38,48:1
38,50:6
38,51:6
38,52:6
39,2:6
39,4:9
39,7:16
39,8:2
39,10:1
39,25:4
39,28:3
39,32:15
39,33:1
39,35:13
39,38:8
39,40:1
39,41:1
39,42:13
39,43:13
40,2:5
40,4:8
40,7:15
40,8:3
40,25:3
40,28:2
40,32:14
40,35:12
40,38:7
40,39:1
40,42:12
40,43:12
40,44:1
41,2:5
41,4:8
41,7:15
41,8:3
41,25:3
41,28:2
41,32:14
41,35:12
41,38:7
41,39:1
41,42:12
41,44:1
42,2:7
42,4:4
42,7:3
42,8:15
42,10:12
42,25:9
42,28:10
42,32:2
42,33:12
42,38:5
42,39:13
42,40:12
42,44:13
43,2:7
43,4:4
43,8:15
43,10:12
43,25:9
43,32:2
43,38:5
43,44:13
43,45:12
44,2:6
44,4:9
44,5:4
44,6:9
44,7:16
44,10:1
44,16:2
44,18:4
44,19:10
44,22:13
44,23:7
44,24:6
44,25:4
44,26:15
44,28:3
44,29:2
44,30:16
44,31:8
44,32:15
44,33:1
44,34:2
44,35:13
44,36:4
44,38:8
44,40:1
44,41:1
44,42:13
44,43:13
44,45:1
45,2:5
45,4:8
45,25:3
45,38:7
45,46:8
45,48:8
45,49:7
46,2:3
46,10:8
46,25:5
46,38:1
46,49:1
46,50:5
47,2:3
47,10:8
47,25:5
47,38:1
47,49:1
47,50:5
47,51:5
48,2:3
48,10:8
48,25:5
48,38:1
48,49:1
48,50:5
48,51:5
48,52:5
48,53:8
48,54:5
48,55:6
48,56:5
49,2:2
49,4:1
49,10:7
49,25:4
49,46:1
49,47:1
49,48:1
49,50:6
49,51:6
49,52:6
49,53:9
49,54:4
49,55:7
49,56:4
49,57:7
49,58:7
50,2:8
50,4:5
50,10:13
50,25:10
50,38:6
50,47:5
50,48:5
50,49:6
50,53:3
50,54:10
50,55:1
50,56:10
50,57:1
50,58:1
51,2:8
51,4:5
51,10:13
51,25:10
51,38:6
51,48:5
51,49:6
52,4:5
52,10:13
52,48:5
52,49:6
52,53:3
53,4:8
53,10:16
53,48:8
53,49:9
53,50:3
53,54:13
54,4:5
54,10:3
54,48:5
54,49:4
54,50:10
54,55:11
55,4:6
55,10:14
55,49:7
55,50:1
55,56:11
56,4:5
56,10:3
56,48:5
56,49:4
56,50:10
56,55:11
56,57:11
57,4:6
57,10:14
57,49:7
57,50:1
58,4:6
58,10:14

<setup times backward>
1,2:3
1,3:7
1,4:6
1,5:1
1,6:6
1,7:13
1,18:1
1,19:7
1,22:10
1,23:4
1,24:3
1,30:13
1,32:12
1,35:10
2,3:4
2,4:3
2,6:3
2,7:10
2,13:9
2,14:3
2,15:7
2,17:9
2,19:4
2,20:1
2,22:7
2,23:1
2,26:9
2,30:10
2,31:2
2,32:9
2,35:7
2,42:7
2,43:7
2,46:3
2,47:3
2,48:3
2,49:2
2,50:8
2,51:8
3,7:6
3,13:5
3,15:3
3,17:5
3,32:5
3,35:3
4,3:1
4,7:7
4,13:6
4,15:4
4,17:6
4,19:1
4,22:4
4,26:6
4,30:7
4,32:6
4,35:4
4,42:4
4,43:4
4,50:5
4,51:5
4,52:5
4,53:8
4,55:6
4,57:6
4,58:6
5,2:2
5,3:6
5,4:5
5,6:5
5,7:12
5,11:2
5,13:11
5,14:5
5,15:9
5,17:11
5,19:6
5,20:3
5,22:9
5,23:3
5,24:2
5,26:11
5,30:12
5,31:4
5,32:11
5,35:9
6,3:1
6,7:7
6,13:6
6,15:4
6,17:6
6,19:1
6,22:4
6,26:6
6,30:7
6,32:6
6,35:4
8,1:5
8,2:8
8,3:12
8,4:11
8,5:6
8,6:11
8,7:18
8,9:6
8,10:3
8,11:8
8,12:5
8,13:17
8,14:11
8,15:15
8,17:17
8,18:6
8,19:12
8,20:9
8,21:6
8,22:15
8,23:9
8,24:8
8,25:6
8,26:17
8,27:2
8,28:5
8,30:18
8,31:10
8,32:17
8,33:3
8,35:15
8,36:6
8,37:2
8,38:10
8,39:2
8,40:3
8,41:3
8,42:15
8,43:15
9,2:2
9,3:6
9,4:5
9,6:5
9,7:12
9,19:6
9,22:9
9,23:3
9,24:2
9,30:12
9,32:11
9,35:9
10,1:2
10,2:5
10,3:9
10,4:8
10,5:3
10,6:8
10,7:15
10,9:3
10,11:5
10,12:2
10,13:14
10,14:8
10,15:12
10,17:14
10,18:3
10,19:9
10,20:6
10,21:3
10,22:12
10,23:6
10,24:5
10,25:3
10,26:14
10,28:2
10,30:15
10,31:7
10,32:14
10,35:12
10,36:3
10,38:7
10,42:12
10,43:12
10,46:8
10,47:8
10,48:8
10,49:7
10,50:13
10,51:13
10,52:13
10,53:16
10,54:3
10,55:14
10,56:3
10,57:14
10,58:14
11,3:4
11,4:3
11,6:3
11,7:10
11,19:4
11,22:7
11,23:1
11,30:10
11,32:9
11,35:7
12,2:3
12,3:7
12,4:6
12,5:1
12,6:6
12,7:13
12,9:1
12,11:3
12,13:12
12,14:6
12,15:10
12,18:1
12,19:7
12,22:10
12,23:4
12,24:3
12,30:13
12,32:12
12,35:10
13,7:1
13,30:1
14,3:1
14,7:7
14,13:6
14,15:4
14,19:1
14,22:4
14,30:7
14,32:6
14,35:4
15,7:3
15,13:2
15,30:3
15,32:2
16,1:5
16,2:8
16,3:12
16,4:11
16,5:6
16,6:11
16,7:18
16,9:6
16,10:3
16,11:8
16,12:5
16,13:17
16,14:11
16,15:15
16,17:17
16,20:9
16,21:6
16,22:15
16,24:8
16,25:6
16,26:17
16,27:2
16,28:5
16,30:18
16,32:17
16,33:3
16,35:15
16,44:2
17,7:1
17,30:1
18,2:2
18,3:6
18,4:5
18,6:5
18,7:12
18,11:2
18,13:11
18,14:5
18,15:9
18,17:11
18,20:3
18,22:9
18,24:2
18,26:11
18,30:12
18,32:11
18,35:9
19,7:6
19,13:5
19,15:3
19,17:5
19,22:3
19,26:5
19,30:6
19,32:5
19,35:3
20,3:3
20,4:2
20,6:2
20,7:9
20,13:8
20,14:2
20,15:6
20,17:8
20,19:3
20,22:6
20,30:9
20,32:8
20,35:6
21,2:2
21,3:6
21,4:5
21,6:5
21,7:12
21,11:2
21,13:11
21,14:5
21,15:9
21,17:11
21,19:6
21,20:3
21,22:9
21,23:3
21,24:2
21,30:12
21,32:11
21,35:9
22,7:3
22,13:2
22,17:2
22,26:2
22,32:2
23,3:3
23,4:2
23,6:2
23,7:9
23,13:8
23,14:2
23,15:6
23,17:8
23,19:3
23,22:6
23,26:8
23,30:9
23,32:8
23,35:6
24,3:4
24,4:3
24,6:3
24,7:10
24,13:9
24,14:3
24,15:7
24,17:9
24,19:4
24,20:1
24,22:7
24,23:1
24,26:9
24,30:10
24,32:9
24,35:7
25,2:2
25,3:6
25,4:5
25,6:5
25,7:12
25,11:2
25,13:11
25,14:5
25,15:9
25,17:11
25,19:6
25,20:3
25,22:9
25,23:3
25,24:2
25,26:11
25,30:12
25,31:4
25,32:11
25,35:9
25,42:9
25,43:9
25,46:5
25,47:5
25,48:5
25,49:4
25,50:10
25,51:10
26,7:1
26,30:1
27,1:3
27,2:6
27,3:10
27,4:9
27,5:4
27,6:9
27,7:16
27,9:4
27,10:1
27,11:6
27,12:3
27,13:15
27,14:9
27,15:13
27,17:15
27,18:4
27,19:10
27,20:7
27,21:4
27,22:13
27,23:7
27,24:6
27,25:4
27,26:15
27,28:3
27,31:8
27,32:15
27,33:1
27,35:13
28,2:3
28,3:7
28,4:6
28,5:1
28,6:6
28,7:13
28,9:1
28,11:3
28,13:12
28,14:6
28,15:10
28,17:12
28,18:1
28,19:7
28,20:4
28,21:1
28,22:10
28,23:4
28,24:3
28,25:1
28,26:12
28,30:13
28,31:5
28,36:1
28,38:5
28,42:10
29,1:5
29,2:8
29,3:12
29,4:11
29,5:6
29,6:11
29,7:18
29,9:6
29,10:3
29,11:8
29,12:5
29,13:17
29,14:11
29,15:15
29,17:17
29,18:6
29,19:12
29,20:9
29,21:6
29,22:15
29,23:9
29,24:8
29,25:6
29,26:17
29,27:2
29,28:5
29,30:18
29,32:17
29,33:3
29,35:15
29,44:2
31,3:2
31,4:1
31,6:1
31,7:8
31,13:7
31,14:1
31,15:5
31,17:7
31,19:2
31,22:5
31,26:7
31,30:8
31,32:7
31,35:5
32,7:1
32,30:1
33,1:2
33,2:5
33,3:9
33,4:8
33,5:3
33,6:8
33,7:15
33,9:3
33,11:5
33,12:2
33,13:14
33,14:8
33,15:12
33,17:14
33,18:3
33,19:9
33,20:6
33,21:3
33,22:12
33,23:6
33,24:5
33,25:3
33,26:14
33,28:2
33,30:15
33,31:7
33,32:14
33,36:3
33,38:7
33,42:12
34,1:5
34,2:8
34,3:12
34,4:11
34,5:6
34,6:11
34,7:18
34,9:6
34,10:3
34,11:8
34,12:5
34,13:17
34,14:11
34,15:15
34,17:17
34,18:6
34,19:12
34,20:9
34,21:6
34,22:15
34,23:9
34,24:8
34,25:6
34,26:17
34,27:2
34,28:5
34,30:18
34,31:10
34,32:17
34,33:3
34,35:15
34,44:2
35,7:3
35,13:2
35,17:2
35,26:2
35,30:3
35,32:2
36,2:2
36,3:6
36,4:5
36,6:5
36,7:12
36,11:2
36,13:11
36,14:5
36,15:9
36,17:11
36,19:6
36,20:3
36,22:9
36,23:3
36,24:2
36,26:11
36,30:12
36,31:4
36,32:11
36,35:9
37,1:3
37,2:6
37,3:10
37,4:9
37,5:4
37,6:9
37,7:16
37,9:4
37,10:1
37,11:6
37,12:3
37,13:15
37,14:9
37,15:13
37,17:15
37,18:4
37,19:10
37,20:7
37,21:4
37,22:13
37,23:7
37,24:6
37,25:4
37,26:15
37,28:3
37,30:16
37,31:8
37,32:15
37,33:1
37,35:13
37,36:4
37,38:8
38,3:2
38,4:1
38,6:1
38,7:8
38,13:7
38,14:1
38,15:5
38,17:7
38,19:2
38,22:5
38,26:7
38,30:8
38,32:7
38,35:5
38,42:5
38,43:5
38,46:1
38,47:1
38,48:1
38,50:6
38,51:6
39,1:3
39,2:6
39,3:10
39,4:9
39,5:4
39,6:9
39,7:16
39,9:4
39,10:1
39,11:6
39,12:3
39,13:15
39,14:9
39,15:13
39,17:15
39,18:4
39,19:10
39,20:7
39,21:4
39,22:13
39,23:7
39,24:6
39,25:4
39,26:15
39,28:3
39,30:16
39,31:8
39,32:15
39,33:1
39,35:13
39,36:4
39,38:8
39,40:1
39,41:1
39,42:13
40,1:2
40,2:5
40,3:9
40,4:8
40,5:3
40,6:8
40,7:15
40,9:3
40,11:5
40,12:2
40,13:14
40,14:8
40,15:12
40,17:14
40,18:3
40,19:9
40,20:6
40,21:3
40,22:12
40,23:6
40,24:5
40,25:3
40,26:14
40,28:2
40,30:15
40,31:7
40,32:14
40,35:12
40,36:3
40,38:7
40,42:12
41,1:2
41,2:5
41,3:9
41,4:8
41,5:3
41,6:8
41,7:15
41,9:3
41,11:5
41,12:2
41,13:14
41,14:8
41,15:12
41,17:14
41,18:3
41,19:9
41,20:6
41,21:3
41,22:12
41,23:6
41,24:5
41,25:3
41,26:14
41,28:2
41,30:15
41,31:7
41,32:14
41,35:12
41,36:3
41,38:7
42,7:3
42,13:2
42,17:2
42,26:2
42,30:3
42,32:2
43,7:3
43,13:2
43,17:2
43,26:2
43,30:3
43,32:2
44,1:3
44,2:6
44,3:10
44,4:9
44,5:4
44,6:9
44,7:16
44,9:4
44,10:1
44,11:6
44,12:3
44,13:15
44,14:9
44,15:13
44,17:15
44,18:4
44,19:10
44,20:7
44,21:4
44,22:13
44,23:7
44,24:6
44,25:4
44,26:15
44,28:3
44,30:16
44,31:8
44,32:15
44,33:1
44,35:13
44,36:4
44,38:8
44,40:1
44,41:1
44,42:13
44,43:13
45,1:2
45,2:5
45,3:9
45,4:8
45,5:3
45,6:8
45,7:15
45,9:3
45,11:5
45,12:2
45,13:14
45,14:8
45,15:12
45,17:14
45,18:3
45,19:9
45,20:6
45,21:3
45,22:12
45,23:6
45,24:5
45,25:3
45,26:14
45,28:2
45,30:15
45,31:7
45,32:14
45,35:12
45,36:3
45,38:7
45,42:12
45,43:12
46,3:1
46,7:7
46,13:6
46,15:4
46,17:6
46,19:1
46,22:4
46,26:6
46,30:7
46,32:6
46,35:4
46,42:4
46,43:4
47,3:1
47,7:7
47,13:6
47,15:4
47,17:6
47,19:1
47,22:4
47,26:6
47,30:7
47,32:6
47,35:4
47,42:4
47,43:4
47,50:5
48,3:1
48,7:7
48,13:6
48,15:4
48,17:6
48,19:1
48,22:4
48,26:6
48,30:7
48,32:6
48,35:4
48,42:4
48,43:4
48,50:5
48,51:5
48,52:5
48,53:8
49,3:2
49,4:1
49,6:1
49,7:8
49,13:7
49,14:1
49,15:5
49,17:7
49,19:2
49,22:5
49,26:7
49,30:8
49,32:7
49,35:5
49,42:5
49,43:5
49,46:1
49,47:1
49,48:1
49,50:6
49,51:6
49,52:6
49,53:9
49,55:7
49,57:7
50,7:2
50,13:1
50,17:1
50,26:1
50,30:2
50,32:1
50,53:3
50,55:1
50,57:1
51,7:2
51,13:1
51,17:1
51,26:1
51,30:2
51,32:1
52,7:2
52,13:1
52,17:1
52,26:1
52,30:2
52,32:1
54,2:2
54,3:6
54,4:5
54,6:5
54,7:12
54,11:2
54,13:11
54,14:5
54,15:9
54,17:11
54,19:6
54,20:3
54,22:9
54,23:3
54,24:2
54,26:11
54,30:12
54,31:4
54,32:11
54,35:9
54,38:4
54,42:9
54,43:9
54,46:5
54,47:5
54,48:5
54,49:4
54,50:10
54,51:10
54,52:10
54,53:13
55,7:1
55,30:1
55,53:2
56,2:2
56,3:6
56,4:5
56,6:5
56,7:12
56,11:2
56,13:11
56,14:5
56,15:9
56,17:11
56,19:6
56,20:3
56,22:9
56,23:3
56,24:2
56,26:11
56,30:12
56,31:4
56,32:11
56,35:9
56,38:4
56,42:9
56,43:9
56,46:5
56,47:5
56,48:5
56,49:4
56,50:10
56,51:10
56,52:10
56,53:13
56,55:11
57,7:1
57,30:1
57,53:2
58,7:1
58,30:1
58,53:2

<end>

<optimal SALBP-1 value>
29


<rand seed>
467321153

